(set-info :source |printed by MathSAT|)
(declare-fun call_moesi.ite19 () Int)
(declare-fun call_moesi.ite31 () Int)
(declare-fun call_moesi.ite9 () Int)
(declare-fun param_etat_mo3 () Bool)
(declare-fun call_moesi.ite21 () Int)
(declare-fun env () Bool)
(declare-fun call_moesi.ite () Int)
(declare-fun param_etat_mo1 () Bool)
(declare-fun call_moesi.ite6 () Int)
(declare-fun call_moesi.ite16 () Int)
(declare-fun call_moesi.ite24 () Int)
(declare-fun call_moesi.flby4 () Int)
(declare-fun call_moesi.ite23 () Int)
(declare-fun owned_mo () Int)
(declare-fun call_moesi.ite2 () Int)
(declare-fun call_moesi.ite32 () Int)
(declare-fun call_moesi.ite10 () Int)
(declare-fun shared_mo () Int)
(declare-fun call_moesi.ite34 () Int)
(declare-fun call_moesi.flby5 () Int)
(declare-fun call_moesi.ite3 () Int)
(declare-fun call_moesi.ite8 () Int)
(declare-fun call_moesi.garde_mo1 () Bool)
(declare-fun call_moesi.shared_mo () Int)
(declare-fun call_moesi.ite15 () Int)
(declare-fun call_moesi.ite33 () Int)
(declare-fun call_moesi.ite18 () Int)
(declare-fun call_moesi.ite17 () Int)
(declare-fun call_moesi.ite11 () Int)
(declare-fun call_moesi.ite5 () Int)
(declare-fun call_moesi.owned_mo () Int)
(declare-fun param_etat_mo2 () Bool)
(declare-fun exclusive_mo () Int)
(declare-fun call_moesi.ite14 () Int)
(declare-fun modified_mo () Int)
(declare-fun param_init_invalid_mo () Int)
(declare-fun _OK_ () Bool)
(declare-fun call_moesi.flby3 () Int)
(declare-fun call_moesi.ite4 () Int)
(declare-fun call_moesi.modified_mo () Int)
(declare-fun call_moesi.ite13 () Int)
(declare-fun call_moesi.ite25 () Int)
(declare-fun call_moesi.ite7 () Int)
(declare-fun call_moesi.erreur_mo () Bool)
(declare-fun call_Sofar.flby () Bool)
(declare-fun call_moesi.ite20 () Int)
(declare-fun call_moesi.garde_mo3 () Bool)
(declare-fun erreur_mo () Bool)
(declare-fun call_moesi.ite28 () Int)
(declare-fun call_moesi.garde_mo4 () Bool)
(declare-fun call_moesi.flby6 () Int)
(declare-fun call_moesi.flby () Bool)
(declare-fun call_moesi.ite26 () Int)
(declare-fun call_moesi.ite29 () Int)
(declare-fun invalid_mo () Int)
(declare-fun flby () Bool)
(declare-fun param_etat_mo4 () Bool)
(declare-fun call_Sofar.Sofar () Bool)
(declare-fun call_moesi.ite30 () Int)
(declare-fun call_moesi.invalid_mo () Int)
(declare-fun call_moesi.ite22 () Int)
(declare-fun call_moesi.ite27 () Int)
(declare-fun call_moesi.exclusive_mo () Int)
(declare-fun call_moesi.ite12 () Int)
(declare-fun call_moesi.flby2 () Int)
(declare-fun call_excludes4.excludes () Bool)
(define-fun .def_927 () Bool (= call_Sofar.flby call_Sofar.Sofar))
(define-fun .def_922 () Bool (and param_etat_mo4 param_etat_mo3))
(define-fun .def_920 () Bool (and param_etat_mo4 param_etat_mo2))
(define-fun .def_918 () Bool (and param_etat_mo2 param_etat_mo3))
(define-fun .def_916 () Bool (and param_etat_mo4 param_etat_mo1))
(define-fun .def_914 () Bool (and param_etat_mo1 param_etat_mo3))
(define-fun .def_913 () Bool (and param_etat_mo2 param_etat_mo1))
(define-fun .def_915 () Bool (or .def_913 .def_914))
(define-fun .def_917 () Bool (or .def_915 .def_916))
(define-fun .def_919 () Bool (or .def_917 .def_918))
(define-fun .def_921 () Bool (or .def_919 .def_920))
(define-fun .def_923 () Bool (or .def_921 .def_922))
(define-fun .def_924 () Bool (not .def_923))
(define-fun .def_925 () Bool (= call_excludes4.excludes .def_924))
(define-fun .def_911 () Bool (= call_moesi.flby call_moesi.erreur_mo))
(define-fun .def_909 () Bool (= call_moesi.flby6 call_moesi.owned_mo))
(define-fun .def_907 () Bool (= call_moesi.flby5 call_moesi.invalid_mo))
(define-fun .def_905 () Bool (= call_moesi.flby4 call_moesi.shared_mo))
(define-fun .def_903 () Bool (= call_moesi.flby3 call_moesi.exclusive_mo))
(define-fun .def_901 () Bool (= call_moesi.flby2 call_moesi.modified_mo))
(define-fun .def_899 () Bool (= env call_Sofar.Sofar))
(define-fun .def_896 () Bool (= erreur_mo call_moesi.erreur_mo))
(define-fun .def_892 () Bool (= owned_mo call_moesi.owned_mo))
(define-fun .def_888 () Bool (= invalid_mo call_moesi.invalid_mo))
(define-fun .def_884 () Bool (= shared_mo call_moesi.shared_mo))
(define-fun .def_880 () Bool (= exclusive_mo call_moesi.exclusive_mo))
(define-fun .def_876 () Bool (= modified_mo call_moesi.modified_mo))
(define-fun .def_870 () Bool (not env))
(define-fun .def_871 () Bool (or flby .def_870))
(define-fun .def_872 () Bool (= _OK_ .def_871))
(define-fun .def_864 () Bool (= call_moesi.ite32 call_moesi.ite33))
(define-fun .def_865 () Bool (or param_etat_mo3 .def_864))
(define-fun .def_861 () Bool (= call_moesi.ite30 call_moesi.ite33))
(define-fun .def_839 () Bool (not param_etat_mo3))
(define-fun .def_862 () Bool (or .def_839 .def_861))
(define-fun .def_858 () Bool (= call_moesi.ite26 call_moesi.ite27))
(define-fun .def_859 () Bool (or param_etat_mo3 .def_858))
(define-fun .def_855 () Bool (= call_moesi.ite27 call_moesi.ite24))
(define-fun .def_856 () Bool (or .def_839 .def_855))
(define-fun .def_851 () Bool (= call_moesi.ite20 call_moesi.ite21))
(define-fun .def_852 () Bool (or param_etat_mo3 .def_851))
(define-fun .def_848 () Bool (= call_moesi.ite18 call_moesi.ite21))
(define-fun .def_849 () Bool (or .def_839 .def_848))
(define-fun .def_845 () Bool (= call_moesi.ite13 call_moesi.ite14))
(define-fun .def_846 () Bool (or param_etat_mo3 .def_845))
(define-fun .def_842 () Bool (= call_moesi.ite11 call_moesi.ite14))
(define-fun .def_843 () Bool (or .def_839 .def_842))
(define-fun .def_838 () Bool (= call_moesi.ite3 call_moesi.ite6))
(define-fun .def_840 () Bool (or .def_838 .def_839))
(define-fun .def_835 () Bool (= call_moesi.ite5 call_moesi.ite6))
(define-fun .def_837 () Bool (or .def_835 param_etat_mo3))
(define-fun .def_841 () Bool (and .def_837 .def_840))
(define-fun .def_844 () Bool (and .def_841 .def_843))
(define-fun .def_847 () Bool (and .def_844 .def_846))
(define-fun .def_850 () Bool (and .def_847 .def_849))
(define-fun .def_853 () Bool (and .def_850 .def_852))
(define-fun .def_857 () Bool (and .def_853 .def_856))
(define-fun .def_860 () Bool (and .def_857 .def_859))
(define-fun .def_863 () Bool (and .def_860 .def_862))
(define-fun .def_866 () Bool (and .def_863 .def_865))
(define-fun .def_831 () Bool (= call_moesi.ite34 call_moesi.ite33))
(define-fun .def_832 () Bool (or param_etat_mo1 .def_831))
(define-fun .def_827 () Bool (= call_moesi.ite29 call_moesi.ite34))
(define-fun .def_797 () Bool (not param_etat_mo1))
(define-fun .def_828 () Bool (or .def_797 .def_827))
(define-fun .def_822 () Bool (= call_moesi.ite28 call_moesi.ite27))
(define-fun .def_823 () Bool (or param_etat_mo1 .def_822))
(define-fun .def_818 () Bool (= call_moesi.ite23 call_moesi.ite28))
(define-fun .def_819 () Bool (or .def_797 .def_818))
(define-fun .def_813 () Bool (= call_moesi.ite22 call_moesi.ite21))
(define-fun .def_814 () Bool (or param_etat_mo1 .def_813))
(define-fun .def_809 () Bool (= call_moesi.ite17 call_moesi.ite22))
(define-fun .def_810 () Bool (or .def_797 .def_809))
(define-fun .def_804 () Bool (= call_moesi.ite15 call_moesi.ite16))
(define-fun .def_805 () Bool (or param_etat_mo1 .def_804))
(define-fun .def_801 () Bool (= call_moesi.ite9 call_moesi.ite16))
(define-fun .def_802 () Bool (or .def_797 .def_801))
(define-fun .def_796 () Bool (= call_moesi.ite call_moesi.ite8))
(define-fun .def_798 () Bool (or .def_796 .def_797))
(define-fun .def_793 () Bool (= call_moesi.ite7 call_moesi.ite8))
(define-fun .def_795 () Bool (or .def_793 param_etat_mo1))
(define-fun .def_799 () Bool (and .def_795 .def_798))
(define-fun .def_803 () Bool (and .def_799 .def_802))
(define-fun .def_806 () Bool (and .def_803 .def_805))
(define-fun .def_811 () Bool (and .def_806 .def_810))
(define-fun .def_815 () Bool (and .def_811 .def_814))
(define-fun .def_820 () Bool (and .def_815 .def_819))
(define-fun .def_824 () Bool (and .def_820 .def_823))
(define-fun .def_829 () Bool (and .def_824 .def_828))
(define-fun .def_833 () Bool (and .def_829 .def_832))
(define-fun .def_789 () Bool (= call_moesi.ite15 call_moesi.ite14))
(define-fun .def_790 () Bool (or param_etat_mo2 .def_789))
(define-fun .def_785 () Bool (= call_moesi.ite10 call_moesi.ite15))
(define-fun .def_780 () Bool (not param_etat_mo2))
(define-fun .def_786 () Bool (or .def_780 .def_785))
(define-fun .def_779 () Bool (= call_moesi.ite7 call_moesi.ite2))
(define-fun .def_781 () Bool (or .def_779 .def_780))
(define-fun .def_775 () Bool (= call_moesi.ite7 call_moesi.ite6))
(define-fun .def_777 () Bool (or .def_775 param_etat_mo2))
(define-fun .def_782 () Bool (and .def_777 .def_781))
(define-fun .def_787 () Bool (and .def_782 .def_786))
(define-fun .def_791 () Bool (and .def_787 .def_790))
(define-fun .def_834 () Bool (and .def_791 .def_833))
(define-fun .def_867 () Bool (and .def_834 .def_866))
(define-fun .def_873 () Bool (and .def_867 .def_872))
(define-fun .def_877 () Bool (and .def_873 .def_876))
(define-fun .def_881 () Bool (and .def_877 .def_880))
(define-fun .def_885 () Bool (and .def_881 .def_884))
(define-fun .def_889 () Bool (and .def_885 .def_888))
(define-fun .def_893 () Bool (and .def_889 .def_892))
(define-fun .def_897 () Bool (and .def_893 .def_896))
(define-fun .def_900 () Bool (and .def_897 .def_899))
(define-fun .def_902 () Bool (and .def_900 .def_901))
(define-fun .def_904 () Bool (and .def_902 .def_903))
(define-fun .def_906 () Bool (and .def_904 .def_905))
(define-fun .def_908 () Bool (and .def_906 .def_907))
(define-fun .def_910 () Bool (and .def_908 .def_909))
(define-fun .def_912 () Bool (and .def_910 .def_911))
(define-fun .def_926 () Bool (and .def_912 .def_925))
(define-fun .def_928 () Bool (and .def_926 .def_927))
(define-fun .def_771 () Bool (= call_excludes4.excludes call_Sofar.flby))
(define-fun .def_767 () Bool (= call_moesi.flby6 0))
(define-fun .def_764 () Bool (= param_init_invalid_mo call_moesi.flby5))
(define-fun .def_760 () Bool (= call_moesi.flby4 0))
(define-fun .def_757 () Bool (= call_moesi.flby3 0))
(define-fun .def_754 () Bool (= call_moesi.flby2 0))
(define-fun .def_751 () Bool (not call_moesi.flby))
(define-fun .def_746 () Bool (= call_moesi.ite31 0))
(define-fun .def_738 () Bool (not call_moesi.garde_mo4))
(define-fun .def_747 () Bool (or .def_738 .def_746))
(define-fun .def_743 () Bool (= call_moesi.ite19 0))
(define-fun .def_744 () Bool (or .def_738 .def_743))
(define-fun .def_740 () Bool (= call_moesi.ite4 0))
(define-fun .def_741 () Bool (or .def_738 .def_740))
(define-fun .def_736 () Bool (= call_moesi.ite12 1))
(define-fun .def_739 () Bool (or .def_736 .def_738))
(define-fun .def_742 () Bool (and .def_739 .def_741))
(define-fun .def_745 () Bool (and .def_742 .def_744))
(define-fun .def_748 () Bool (and .def_745 .def_747))
(define-fun .def_732 () Bool (= call_moesi.ite30 0))
(define-fun .def_721 () Bool (not call_moesi.garde_mo3))
(define-fun .def_733 () Bool (or .def_721 .def_732))
(define-fun .def_728 () Bool (= call_moesi.ite18 0))
(define-fun .def_729 () Bool (or .def_721 .def_728))
(define-fun .def_724 () Bool (= call_moesi.ite3 0))
(define-fun .def_725 () Bool (or .def_721 .def_724))
(define-fun .def_719 () Bool (= call_moesi.ite11 1))
(define-fun .def_722 () Bool (or .def_719 .def_721))
(define-fun .def_726 () Bool (and .def_722 .def_725))
(define-fun .def_730 () Bool (and .def_726 .def_729))
(define-fun .def_734 () Bool (and .def_730 .def_733))
(define-fun .def_714 () Bool (= call_moesi.ite 0))
(define-fun .def_711 () Bool (not call_moesi.garde_mo1))
(define-fun .def_715 () Bool (or .def_711 .def_714))
(define-fun .def_709 () Bool (= call_moesi.ite9 0))
(define-fun .def_712 () Bool (or .def_709 .def_711))
(define-fun .def_716 () Bool (and .def_712 .def_715))
(define-fun .def_703 () Bool (= call_moesi.ite31 call_moesi.ite32))
(define-fun .def_684 () Bool (not param_etat_mo4))
(define-fun .def_704 () Bool (or .def_684 .def_703))
(define-fun .def_698 () Bool (= call_moesi.ite25 call_moesi.ite26))
(define-fun .def_699 () Bool (or .def_684 .def_698))
(define-fun .def_693 () Bool (= call_moesi.ite19 call_moesi.ite20))
(define-fun .def_694 () Bool (or .def_684 .def_693))
(define-fun .def_688 () Bool (= call_moesi.ite4 call_moesi.ite5))
(define-fun .def_689 () Bool (or .def_684 .def_688))
(define-fun .def_682 () Bool (= call_moesi.ite12 call_moesi.ite13))
(define-fun .def_685 () Bool (or .def_682 .def_684))
(define-fun .def_690 () Bool (and .def_685 .def_689))
(define-fun .def_695 () Bool (and .def_690 .def_694))
(define-fun .def_700 () Bool (and .def_695 .def_699))
(define-fun .def_705 () Bool (and .def_700 .def_704))
(define-fun .def_707 () Bool (and .def_705 flby))
(define-fun .def_717 () Bool (and .def_707 .def_716))
(define-fun .def_735 () Bool (and .def_717 .def_734))
(define-fun .def_749 () Bool (and .def_735 .def_748))
(define-fun .def_752 () Bool (and .def_749 .def_751))
(define-fun .def_755 () Bool (and .def_752 .def_754))
(define-fun .def_758 () Bool (and .def_755 .def_757))
(define-fun .def_761 () Bool (and .def_758 .def_760))
(define-fun .def_765 () Bool (and .def_761 .def_764))
(define-fun .def_768 () Bool (and .def_765 .def_767))
(define-fun .def_772 () Bool (and .def_768 .def_771))
(define-fun .def_929 () Bool (and .def_772 .def_928))
(assert .def_929)
